c defined variables: 33 34 35 36 37 38 39 40 41 42 43 44 45 46 47 48 49 50 51 52 53 54 55 56 57 58 59 60 61 62 63 64 65 66 67 68 69 70 71 72 73 74 75 76 77 78 79 80 81 82 83 84 85 86 87 88 89 90 91 92 93 94 95 96 97 98 99 100 101 102 103 104 105 106 107 108 109 110 111 112 113 114 115 116 117 118 119 120 121 122 123 124 125 126 127 128 129 130 131 132 133 134 135 136 137 138 139 140 141 142 143 144 145 146 147 148 149 150 151 152 153 154 155 156 157 158 159 160 161 162 163 164 165 166 167 197 198 199 200 201 202 203 204 205 206 207 208 209 210 211 212 213 214 215 216 217 218 219 220 221 222 223 224 225 226 227 228 229 230 231 232 233 234 235 236 237 238 239 240 241 242 243 244 245 246 247 248 249 250 251 252 253 254 255 256 257 258 259 260 261 262 263 264 265 266 267 268 269 270 271 272 273 274 275 276 277 278 279 280 281 282 283 287 288 289 290 291 292 293 294 295 296 297 298 299 300 301 302 303 304 305 306 307 308 309 310 311 312 313 
p cnf 1366 2082
a 1 2 3 4 5 6 7 8 9 10 11 12 13 14 15 16 17 18 19 20 21 22 23 24 25 26 27 28 29 30 31 32 171 172 173 174 175 176 177 178 179 180 181 182 183 184 185 186 187 188 189 190 191 192 193 194 195 196 0
e 33 34 35 36 37 38 39 40 41 42 43 44 45 46 47 48 49 50 51 52 53 54 55 56 57 58 59 60 61 62 63 64 65 66 67 68 69 70 71 72 73 74 75 76 77 78 79 80 81 82 83 84 85 86 87 88 89 90 91 92 93 94 95 96 97 98 99 100 101 102 103 104 105 106 107 108 109 110 111 112 113 114 115 116 117 118 119 120 121 122 123 124 125 126 127 128 129 130 131 132 133 134 135 136 137 138 139 140 141 142 143 144 145 146 147 148 149 150 151 152 153 154 155 156 157 158 159 160 161 162 163 164 165 166 167 197 198 199 200 201 202 203 204 205 206 207 208 209 210 211 212 213 214 215 216 217 218 219 220 221 222 223 224 225 226 227 228 229 230 231 232 233 234 235 236 237 238 239 240 241 242 243 244 245 246 247 248 249 250 251 252 253 254 255 256 257 258 259 260 261 262 263 264 265 266 267 268 269 270 271 272 273 274 275 276 277 278 279 280 281 282 283 287 288 289 290 291 292 293 294 295 296 297 298 299 300 301 302 303 304 305 306 307 308 309 310 311 312 313 1101 1102 1103 1104 1105 1106 1107 1108 1109 1110 1111 1112 1113 1114 1115 1116 1117 1118 1119 1120 1121 1122 1123 1124 1125 1126 1127 1128 1129 1130 1131 1132 1133 1134 1135 1136 1137 1138 1139 1140 1141 1142 1143 1144 1145 1146 1147 1148 1149 1150 1151 1152 1153 1154 1155 1156 1157 1158 1159 1160 1161 1162 1163 1164 1165 1166 1167 1168 1169 1170 1171 1172 1173 1174 1175 1176 1177 1178 1179 1180 1181 1182 1183 1184 1185 1186 1187 1188 1189 1190 1191 1192 1193 1194 1195 1196 1197 1198 1199 1200 1201 1202 1203 1204 1205 1206 1207 1208 1209 1210 1211 1212 1213 1214 1215 1216 1217 1218 1219 1220 1221 1222 1223 1224 1225 1226 1227 1228 1229 1230 1231 1232 1233 1234 1235 1236 1237 1238 1239 1240 1241 1242 1243 1244 1245 1246 1247 1248 1249 1250 1251 1252 1253 1254 1255 1256 1257 1258 1259 1260 1261 1262 1263 1264 1265 1266 1267 1268 1269 1270 1271 1272 1273 1274 1275 1276 1277 1278 1279 1280 1281 1282 1283 1284 1285 1286 1287 1288 1289 1290 1291 1292 1293 1294 1295 1296 1297 1298 1299 1300 1301 1302 1303 1304 1305 1306 1307 1308 1309 1310 1311 1312 1313 1314 1315 1316 1317 1318 1319 1320 1321 1322 1323 1324 1325 1326 1327 1328 1329 1330 1331 1332 1333 1334 1335 1336 1337 1338 1339 1340 1341 1342 1343 1344 1345 1346 1347 1348 1349 1350 1351 1352 1353 1354 1355 1356 1357 1358 1359 1360 1361 1362 1363 1364 1365 1366 0
d 170 171 172 173 174 175 176 177 178 179 180 181 182 183 184 185 186 187 188 189 190 191 192 193 194 195 196 0
d 169 179 180 181 182 183 184 185 186 187 188 189 190 191 192 193 194 195 196 171 172 173 174 175 176 177 178 0
d 168 179 180 181 182 183 184 185 186 187 188 189 190 191 192 193 194 195 196 171 172 173 174 175 176 177 178 0
d 284 1 2 3 4 5 6 7 8 9 10 11 12 13 14 15 16 17 18 19 20 21 22 23 24 25 26 27 28 29 30 31 32 171 172 173 174 175 176 177 178 179 180 181 182 183 184 185 186 187 188 189 190 191 192 193 194 195 196 0
d 285 1 2 3 4 5 6 7 8 9 10 11 12 13 14 15 16 17 18 19 20 21 22 23 24 25 26 27 28 29 30 31 32 171 172 173 174 175 176 177 178 179 180 181 182 183 184 185 186 187 188 189 190 191 192 193 194 195 196 0
d 286 1 2 3 4 5 6 7 8 9 10 11 12 13 14 15 16 17 18 19 20 21 22 23 24 25 26 27 28 29 30 31 32 171 172 173 174 175 176 177 178 179 180 181 182 183 184 185 186 187 188 189 190 191 192 193 194 195 196 0
1101 -33 0
-1101 33 0
1102 -34 0
-1102 34 0
-1103 -35 0
1103 35 0
1104 -36 0
-1104 36 0
1105 -37 0
-1105 37 0
-1106 -38 0
1106 38 0
1107 -39 0
-1107 39 0
1108 -40 0
-1108 40 0
-1109 -41 0
1109 41 0
-12 -42 0
12 42 0
-1110 -43 0
1110 43 0
-11 -44 0
11 44 0
-1111 -45 0
1111 45 0
-10 -46 0
10 46 0
-1112 -47 0
1112 47 0
-9 -48 0
9 48 0
-1113 -49 0
1113 49 0
-49 -50 0
49 50 0
1114 -51 0
-1114 51 0
1116 -52 0
-1116 52 0
1118 -53 0
-1118 53 0
-1121 -54 0
1121 54 0
1122 -55 0
-1122 55 0
1123 -56 0
-1123 56 0
-1124 -57 0
1124 57 0
1125 -58 0
-1125 58 0
1126 -59 0
-1126 59 0
1127 -60 0
-1127 60 0
1128 -61 0
-1128 61 0
-1129 -62 0
1129 62 0
1130 -63 0
-1130 63 0
1131 -64 0
-1131 64 0
-1132 -65 0
1132 65 0
1133 -66 0
-1133 66 0
1134 -67 0
-1134 67 0
-1135 -68 0
1135 68 0
1136 -69 0
-1136 69 0
1137 -70 0
-1137 70 0
-1138 -71 0
1138 71 0
-8 -72 0
8 72 0
-1139 -73 0
1139 73 0
-7 -74 0
7 74 0
-1140 -75 0
1140 75 0
-6 -76 0
6 76 0
-1141 -77 0
1141 77 0
-5 -78 0
5 78 0
-1142 -79 0
1142 79 0
-79 -80 0
79 80 0
1143 -81 0
-1143 81 0
1145 -82 0
-1145 82 0
1147 -83 0
-1147 83 0
-1150 -84 0
1150 84 0
1151 -85 0
-1151 85 0
1152 -86 0
-1152 86 0
-1153 -87 0
1153 87 0
1154 -88 0
-1154 88 0
1155 -89 0
-1155 89 0
1156 -90 0
-1156 90 0
1157 -91 0
-1157 91 0
-1158 -92 0
1158 92 0
1159 -93 0
-1159 93 0
1160 -94 0
-1160 94 0
-1161 -95 0
1161 95 0
1162 -96 0
-1162 96 0
1163 -97 0
-1163 97 0
-1164 -98 0
1164 98 0
1165 -99 0
-1165 99 0
1166 -100 0
-1166 100 0
-1167 -101 0
1167 101 0
-4 -102 0
4 102 0
-1168 -103 0
1168 103 0
-3 -104 0
3 104 0
-1169 -105 0
1169 105 0
-2 -106 0
2 106 0
-1170 -107 0
1170 107 0
-1 -108 0
1 108 0
-1171 -109 0
1171 109 0
-109 -110 0
109 110 0
1172 -111 0
-1172 111 0
1174 -112 0
-1174 112 0
1176 -113 0
-1176 113 0
-1179 -114 0
1179 114 0
1180 -115 0
-1180 115 0
1181 -116 0
-1181 116 0
-1182 -117 0
1182 117 0
1183 -118 0
-1183 118 0
1184 -119 0
-1184 119 0
1185 -120 0
-1185 120 0
1186 -121 0
-1186 121 0
-1187 -122 0
1187 122 0
1188 -123 0
-1188 123 0
1189 -124 0
-1189 124 0
-1190 -125 0
1190 125 0
1191 -126 0
-1191 126 0
1192 -127 0
-1192 127 0
-1193 -128 0
1193 128 0
1194 -129 0
-1194 129 0
1195 -130 0
-1195 130 0
-1196 -131 0
1196 131 0
-16 -132 0
16 132 0
-1197 -133 0
1197 133 0
-15 -134 0
15 134 0
-1198 -135 0
1198 135 0
-14 -136 0
14 136 0
-1199 -137 0
1199 137 0
-13 -138 0
13 138 0
-1200 -139 0
1200 139 0
-139 -140 0
139 140 0
1201 -141 0
-1201 141 0
1203 -142 0
-1203 142 0
1205 -143 0
-1205 143 0
-1208 -144 0
1208 144 0
1209 -145 0
-1209 145 0
1210 -146 0
-1210 146 0
-1211 -147 0
1211 147 0
1212 -148 0
-1212 148 0
1213 -149 0
-1213 149 0
-144 -150 0
144 150 0
-1214 -151 0
1214 151 0
-54 -152 0
54 152 0
-1215 -153 0
1215 153 0
-84 -154 0
84 154 0
-1216 -155 0
1216 155 0
-114 -156 0
114 156 0
-1217 -157 0
1217 157 0
-157 -158 0
157 158 0
1218 -159 0
-1218 159 0
1220 -160 0
-1220 160 0
1222 -161 0
-1222 161 0
-1225 -162 0
1225 162 0
1226 -163 0
-1226 163 0
1227 -164 0
-1227 164 0
-1228 -165 0
1228 165 0
1229 -166 0
-1229 166 0
1230 -167 0
-1230 167 0
1188 -197 0
-1188 197 0
1189 -198 0
-1189 198 0
-1231 -199 0
1231 199 0
1191 -200 0
-1191 200 0
1192 -201 0
-1192 201 0
-1232 -202 0
1232 202 0
1194 -203 0
-1194 203 0
1195 -204 0
-1195 204 0
-1233 -205 0
1233 205 0
-16 -206 0
16 206 0
-1234 -207 0
1234 207 0
-15 -208 0
15 208 0
-1235 -209 0
1235 209 0
-14 -210 0
14 210 0
-1236 -211 0
1236 211 0
-13 -212 0
13 212 0
-1237 -213 0
1237 213 0
1209 -214 0
-1209 214 0
1210 -215 0
-1210 215 0
-1238 -216 0
1238 216 0
1101 -217 0
-1101 217 0
1102 -218 0
-1102 218 0
-1239 -219 0
1239 219 0
1104 -220 0
-1104 220 0
1105 -221 0
-1105 221 0
-1240 -222 0
1240 222 0
1107 -223 0
-1107 223 0
1108 -224 0
-1108 224 0
-1241 -225 0
1241 225 0
-12 -226 0
12 226 0
-1242 -227 0
1242 227 0
-11 -228 0
11 228 0
-1243 -229 0
1243 229 0
-10 -230 0
10 230 0
-1244 -231 0
1244 231 0
-9 -232 0
9 232 0
-1245 -233 0
1245 233 0
1122 -234 0
-1122 234 0
1123 -235 0
-1123 235 0
-1246 -236 0
1246 236 0
1130 -237 0
-1130 237 0
1131 -238 0
-1131 238 0
-1247 -239 0
1247 239 0
1133 -240 0
-1133 240 0
1134 -241 0
-1134 241 0
-1248 -242 0
1248 242 0
1136 -243 0
-1136 243 0
1137 -244 0
-1137 244 0
-1249 -245 0
1249 245 0
-8 -246 0
8 246 0
-1250 -247 0
1250 247 0
-7 -248 0
7 248 0
-1251 -249 0
1251 249 0
-6 -250 0
6 250 0
-1252 -251 0
1252 251 0
-5 -252 0
5 252 0
-1253 -253 0
1253 253 0
1151 -254 0
-1151 254 0
1152 -255 0
-1152 255 0
-1254 -256 0
1254 256 0
-19 -257 0
19 257 0
1255 -258 0
-1255 258 0
1256 -259 0
-1256 259 0
-1257 -260 0
1257 260 0
1162 -261 0
-1162 261 0
1163 -262 0
-1163 262 0
-1258 -263 0
1258 263 0
1165 -264 0
-1165 264 0
1166 -265 0
-1166 265 0
-1259 -266 0
1259 266 0
-4 -267 0
4 267 0
-1260 -268 0
1260 268 0
-3 -269 0
3 269 0
-1261 -270 0
1261 270 0
-2 -271 0
2 271 0
-1262 -272 0
1262 272 0
-1 -273 0
1 273 0
-1263 -274 0
1263 274 0
-274 -275 0
274 275 0
1264 -276 0
-1264 276 0
1266 -277 0
-1266 277 0
1268 -278 0
-1268 278 0
-1271 -279 0
1271 279 0
1180 -280 0
-1180 280 0
1181 -281 0
-1181 281 0
-1272 -282 0
1272 282 0
1273 -283 0
-1273 283 0
1275 -287 0
-1275 287 0
1278 -288 0
-1278 288 0
1281 -289 0
-1281 289 0
1289 -290 0
-1289 290 0
1292 -291 0
-1292 291 0
1297 -292 0
-1297 292 0
-1300 -293 0
1300 293 0
-1303 -294 0
1303 294 0
1307 -295 0
-1307 295 0
1310 -296 0
-1310 296 0
1313 -297 0
-1313 297 0
1316 -298 0
-1316 298 0
1319 -299 0
-1319 299 0
-1322 -300 0
1322 300 0
-1325 -301 0
1325 301 0
-1328 -302 0
1328 302 0
1331 -303 0
-1331 303 0
1334 -304 0
-1334 304 0
1342 -305 0
-1342 305 0
1345 -306 0
-1345 306 0
1348 -307 0
-1348 307 0
-1351 -308 0
1351 308 0
-1354 -309 0
1354 309 0
-1357 -310 0
1357 310 0
1360 -311 0
-1360 311 0
1363 -312 0
-1363 312 0
1366 -313 0
-1366 313 0
-33 -11 0
-33 27 0
11 -27 33 0
-34 11 0
-34 -27 0
-11 27 34 0
-33 35 0
-34 35 0
-35 33 34 0
-36 -10 0
-36 26 0
10 -26 36 0
-37 10 0
-37 -26 0
-10 26 37 0
-36 38 0
-37 38 0
-38 36 37 0
-39 -9 0
-39 25 0
9 -25 39 0
-40 9 0
-40 -25 0
-9 25 40 0
-39 41 0
-40 41 0
-41 39 40 0
-12 -42 0
12 42 0
-42 43 0
-28 43 0
-43 42 28 0
-11 -44 0
11 44 0
-44 45 0
-27 45 0
-45 44 27 0
-10 -46 0
10 46 0
-46 47 0
-26 47 0
-47 46 26 0
-9 -48 0
9 48 0
-48 49 0
-25 49 0
-49 48 25 0
-49 -50 0
49 50 0
-51 -41 0
-51 -47 0
41 47 51 0
-52 -38 0
-52 -41 0
-52 -45 0
38 41 45 52 0
-53 -35 0
-53 -38 0
-53 -41 0
-53 -43 0
35 38 41 43 53 0
-50 54 0
-51 54 0
-52 54 0
-53 54 0
-54 50 51 52 53 0
-55 -12 0
-55 28 0
12 -28 55 0
-56 12 0
-56 -28 0
-12 28 56 0
-55 57 0
-56 57 0
-57 55 56 0
-58 -57 0
-58 -35 0
-58 -38 0
-58 -41 0
57 35 38 41 58 0
-59 -54 0
-59 -58 0
54 58 59 0
-60 -54 0
-60 59 0
54 -59 60 0
-61 54 0
-61 -59 0
-54 59 61 0
-60 62 0
-61 62 0
-62 60 61 0
-63 -7 0
-63 23 0
7 -23 63 0
-64 7 0
-64 -23 0
-7 23 64 0
-63 65 0
-64 65 0
-65 63 64 0
-66 -6 0
-66 22 0
6 -22 66 0
-67 6 0
-67 -22 0
-6 22 67 0
-66 68 0
-67 68 0
-68 66 67 0
-69 -5 0
-69 21 0
5 -21 69 0
-70 5 0
-70 -21 0
-5 21 70 0
-69 71 0
-70 71 0
-71 69 70 0
-8 -72 0
8 72 0
-72 73 0
-24 73 0
-73 72 24 0
-7 -74 0
7 74 0
-74 75 0
-23 75 0
-75 74 23 0
-6 -76 0
6 76 0
-76 77 0
-22 77 0
-77 76 22 0
-5 -78 0
5 78 0
-78 79 0
-21 79 0
-79 78 21 0
-79 -80 0
79 80 0
-81 -71 0
-81 -77 0
71 77 81 0
-82 -68 0
-82 -71 0
-82 -75 0
68 71 75 82 0
-83 -65 0
-83 -68 0
-83 -71 0
-83 -73 0
65 68 71 73 83 0
-80 84 0
-81 84 0
-82 84 0
-83 84 0
-84 80 81 82 83 0
-85 -8 0
-85 24 0
8 -24 85 0
-86 8 0
-86 -24 0
-8 24 86 0
-85 87 0
-86 87 0
-87 85 86 0
-88 -87 0
-88 -65 0
-88 -68 0
-88 -71 0
87 65 68 71 88 0
-89 -84 0
-89 -88 0
84 88 89 0
-90 -84 0
-90 89 0
84 -89 90 0
-91 84 0
-91 -89 0
-84 89 91 0
-90 92 0
-91 92 0
-92 90 91 0
-93 -3 0
-93 19 0
3 -19 93 0
-94 3 0
-94 -19 0
-3 19 94 0
-93 95 0
-94 95 0
-95 93 94 0
-96 -2 0
-96 18 0
2 -18 96 0
-97 2 0
-97 -18 0
-2 18 97 0
-96 98 0
-97 98 0
-98 96 97 0
-99 -1 0
-99 17 0
1 -17 99 0
-100 1 0
-100 -17 0
-1 17 100 0
-99 101 0
-100 101 0
-101 99 100 0
-4 -102 0
4 102 0
-102 103 0
-20 103 0
-103 102 20 0
-3 -104 0
3 104 0
-104 105 0
-19 105 0
-105 104 19 0
-2 -106 0
2 106 0
-106 107 0
-18 107 0
-107 106 18 0
-1 -108 0
1 108 0
-108 109 0
-17 109 0
-109 108 17 0
-109 -110 0
109 110 0
-111 -101 0
-111 -107 0
101 107 111 0
-112 -98 0
-112 -101 0
-112 -105 0
98 101 105 112 0
-113 -95 0
-113 -98 0
-113 -101 0
-113 -103 0
95 98 101 103 113 0
-110 114 0
-111 114 0
-112 114 0
-113 114 0
-114 110 111 112 113 0
-115 -4 0
-115 20 0
4 -20 115 0
-116 4 0
-116 -20 0
-4 20 116 0
-115 117 0
-116 117 0
-117 115 116 0
-118 -117 0
-118 -95 0
-118 -98 0
-118 -101 0
117 95 98 101 118 0
-119 -114 0
-119 -118 0
114 118 119 0
-120 -114 0
-120 119 0
114 -119 120 0
-121 114 0
-121 -119 0
-114 119 121 0
-120 122 0
-121 122 0
-122 120 121 0
-123 -15 0
-123 31 0
15 -31 123 0
-124 15 0
-124 -31 0
-15 31 124 0
-123 125 0
-124 125 0
-125 123 124 0
-126 -14 0
-126 30 0
14 -30 126 0
-127 14 0
-127 -30 0
-14 30 127 0
-126 128 0
-127 128 0
-128 126 127 0
-129 -13 0
-129 29 0
13 -29 129 0
-130 13 0
-130 -29 0
-13 29 130 0
-129 131 0
-130 131 0
-131 129 130 0
-16 -132 0
16 132 0
-132 133 0
-32 133 0
-133 132 32 0
-15 -134 0
15 134 0
-134 135 0
-31 135 0
-135 134 31 0
-14 -136 0
14 136 0
-136 137 0
-30 137 0
-137 136 30 0
-13 -138 0
13 138 0
-138 139 0
-29 139 0
-139 138 29 0
-139 -140 0
139 140 0
-141 -131 0
-141 -137 0
131 137 141 0
-142 -128 0
-142 -131 0
-142 -135 0
128 131 135 142 0
-143 -125 0
-143 -128 0
-143 -131 0
-143 -133 0
125 128 131 133 143 0
-140 144 0
-141 144 0
-142 144 0
-143 144 0
-144 140 141 142 143 0
-145 -16 0
-145 32 0
16 -32 145 0
-146 16 0
-146 -32 0
-16 32 146 0
-145 147 0
-146 147 0
-147 145 146 0
-148 -147 0
-148 -125 0
-148 -128 0
-148 -131 0
147 125 128 131 148 0
-149 -144 0
-149 -148 0
144 148 149 0
-144 -150 0
144 150 0
-150 151 0
-149 151 0
-151 150 149 0
-54 -152 0
54 152 0
-152 153 0
-59 153 0
-153 152 59 0
-84 -154 0
84 154 0
-154 155 0
-89 155 0
-155 154 89 0
-114 -156 0
114 156 0
-156 157 0
-119 157 0
-157 156 119 0
-157 -158 0
157 158 0
-159 -122 0
-159 -155 0
122 155 159 0
-160 -92 0
-160 -122 0
-160 -153 0
92 122 153 160 0
-161 -62 0
-161 -92 0
-161 -122 0
-161 -151 0
62 92 122 151 161 0
-158 162 0
-159 162 0
-160 162 0
-161 162 0
-162 158 159 160 161 0
-163 -144 0
-163 149 0
144 -149 163 0
-164 144 0
-164 -149 0
-144 149 164 0
-163 165 0
-164 165 0
-165 163 164 0
-166 -165 0
-166 -62 0
-166 -92 0
-166 -122 0
165 62 92 122 166 0
-167 -162 0
-167 -166 0
162 166 167 0
-197 -15 0
-197 31 0
15 -31 197 0
-198 15 0
-198 -31 0
-15 31 198 0
-197 199 0
-198 199 0
-199 197 198 0
-200 -14 0
-200 30 0
14 -30 200 0
-201 14 0
-201 -30 0
-14 30 201 0
-200 202 0
-201 202 0
-202 200 201 0
-203 -13 0
-203 29 0
13 -29 203 0
-204 13 0
-204 -29 0
-13 29 204 0
-203 205 0
-204 205 0
-205 203 204 0
-16 -206 0
16 206 0
-206 207 0
-32 207 0
-207 206 32 0
-15 -208 0
15 208 0
-208 209 0
-31 209 0
-209 208 31 0
-14 -210 0
14 210 0
-210 211 0
-30 211 0
-211 210 30 0
-13 -212 0
13 212 0
-212 213 0
-29 213 0
-213 212 29 0
-214 -16 0
-214 32 0
16 -32 214 0
-215 16 0
-215 -32 0
-16 32 215 0
-214 216 0
-215 216 0
-216 214 215 0
-217 -11 0
-217 27 0
11 -27 217 0
-218 11 0
-218 -27 0
-11 27 218 0
-217 219 0
-218 219 0
-219 217 218 0
-220 -10 0
-220 26 0
10 -26 220 0
-221 10 0
-221 -26 0
-10 26 221 0
-220 222 0
-221 222 0
-222 220 221 0
-223 -9 0
-223 25 0
9 -25 223 0
-224 9 0
-224 -25 0
-9 25 224 0
-223 225 0
-224 225 0
-225 223 224 0
-12 -226 0
12 226 0
-226 227 0
-28 227 0
-227 226 28 0
-11 -228 0
11 228 0
-228 229 0
-27 229 0
-229 228 27 0
-10 -230 0
10 230 0
-230 231 0
-26 231 0
-231 230 26 0
-9 -232 0
9 232 0
-232 233 0
-25 233 0
-233 232 25 0
-234 -12 0
-234 28 0
12 -28 234 0
-235 12 0
-235 -28 0
-12 28 235 0
-234 236 0
-235 236 0
-236 234 235 0
-237 -7 0
-237 23 0
7 -23 237 0
-238 7 0
-238 -23 0
-7 23 238 0
-237 239 0
-238 239 0
-239 237 238 0
-240 -6 0
-240 22 0
6 -22 240 0
-241 6 0
-241 -22 0
-6 22 241 0
-240 242 0
-241 242 0
-242 240 241 0
-243 -5 0
-243 21 0
5 -21 243 0
-244 5 0
-244 -21 0
-5 21 244 0
-243 245 0
-244 245 0
-245 243 244 0
-8 -246 0
8 246 0
-246 247 0
-24 247 0
-247 246 24 0
-7 -248 0
7 248 0
-248 249 0
-23 249 0
-249 248 23 0
-6 -250 0
6 250 0
-250 251 0
-22 251 0
-251 250 22 0
-5 -252 0
5 252 0
-252 253 0
-21 253 0
-253 252 21 0
-254 -8 0
-254 24 0
8 -24 254 0
-255 8 0
-255 -24 0
-8 24 255 0
-254 256 0
-255 256 0
-256 254 255 0
-19 -257 0
19 257 0
-258 -3 0
-258 257 0
3 -257 258 0
-259 3 0
-259 -257 0
-3 257 259 0
-258 260 0
-259 260 0
-260 258 259 0
-261 -2 0
-261 18 0
2 -18 261 0
-262 2 0
-262 -18 0
-2 18 262 0
-261 263 0
-262 263 0
-263 261 262 0
-264 -1 0
-264 17 0
1 -17 264 0
-265 1 0
-265 -17 0
-1 17 265 0
-264 266 0
-265 266 0
-266 264 265 0
-4 -267 0
4 267 0
-267 268 0
-20 268 0
-268 267 20 0
-3 -269 0
3 269 0
-269 270 0
-19 270 0
-270 269 19 0
-2 -271 0
2 271 0
-271 272 0
-18 272 0
-272 271 18 0
-1 -273 0
1 273 0
-273 274 0
-17 274 0
-274 273 17 0
-274 -275 0
274 275 0
-276 -266 0
-276 -272 0
266 272 276 0
-277 -263 0
-277 -266 0
-277 -270 0
263 266 270 277 0
-278 -260 0
-278 -263 0
-278 -266 0
-278 -268 0
260 263 266 268 278 0
-275 279 0
-276 279 0
-277 279 0
-278 279 0
-279 275 276 277 278 0
-280 -4 0
-280 20 0
4 -20 280 0
-281 4 0
-281 -20 0
-4 20 281 0
-280 282 0
-281 282 0
-282 280 281 0
-283 -282 0
-283 -260 0
-283 -263 0
-283 -266 0
282 260 263 266 283 0
-284 -167 168 0
-284 167 -168 0
284 -167 -168 0
284 167 168 0
-285 -166 170 0
-285 166 -170 0
285 -166 -170 0
285 166 170 0
-286 -162 169 0
-286 162 -169 0
286 -162 -169 0
286 162 169 0
-284 -285 -286 287 0
-287 284 0
-287 285 0
-287 286 0
-199 -171 -288 0
-199 171 288 0
199 -171 288 0
199 171 -288 0
-202 -172 -289 0
-202 172 289 0
202 -172 289 0
202 172 -289 0
-205 -173 -290 0
-205 173 290 0
205 -173 290 0
205 173 -290 0
-207 -174 -291 0
-207 174 291 0
207 -174 291 0
207 174 -291 0
-209 -175 -292 0
-209 175 292 0
209 -175 292 0
209 175 -292 0
-211 -176 -293 0
-211 176 293 0
211 -176 293 0
211 176 -293 0
-213 -177 -294 0
-213 177 294 0
213 -177 294 0
213 177 -294 0
-216 -178 -295 0
-216 178 295 0
216 -178 295 0
216 178 -295 0
-219 -179 -296 0
-219 179 296 0
219 -179 296 0
219 179 -296 0
-222 -180 -297 0
-222 180 297 0
222 -180 297 0
222 180 -297 0
-225 -181 -298 0
-225 181 298 0
225 -181 298 0
225 181 -298 0
-227 -182 -299 0
-227 182 299 0
227 -182 299 0
227 182 -299 0
-229 -183 -300 0
-229 183 300 0
229 -183 300 0
229 183 -300 0
-231 -184 -301 0
-231 184 301 0
231 -184 301 0
231 184 -301 0
-233 -185 -302 0
-233 185 302 0
233 -185 302 0
233 185 -302 0
-236 -186 -303 0
-236 186 303 0
236 -186 303 0
236 186 -303 0
-239 -187 -304 0
-239 187 304 0
239 -187 304 0
239 187 -304 0
-242 -188 -305 0
-242 188 305 0
242 -188 305 0
242 188 -305 0
-245 -189 -306 0
-245 189 306 0
245 -189 306 0
245 189 -306 0
-247 -190 -307 0
-247 190 307 0
247 -190 307 0
247 190 -307 0
-249 -191 -308 0
-249 191 308 0
249 -191 308 0
249 191 -308 0
-251 -192 -309 0
-251 192 309 0
251 -192 309 0
251 192 -309 0
-253 -193 -310 0
-253 193 310 0
253 -193 310 0
253 193 -310 0
-256 -194 -311 0
-256 194 311 0
256 -194 311 0
256 194 -311 0
-279 -195 -312 0
-279 195 312 0
279 -195 312 0
279 195 -312 0
-283 -196 -313 0
-283 196 313 0
283 -196 313 0
283 196 -313 0
288 289 290 291 292 293 294 295 296 297 298 299 300 301 302 303 304 305 306 307 308 309 310 311 312 313 287 0
-11 -1101 0
27 -1101 0
11 -27 1101 0
11 -1102 0
-27 -1102 0
-11 27 1102 0
-33 -1103 0
-34 -1103 0
33 34 1103 0
-10 -1104 0
26 -1104 0
10 -26 1104 0
10 -1105 0
-26 -1105 0
-10 26 1105 0
-36 -1106 0
-37 -1106 0
36 37 1106 0
-9 -1107 0
25 -1107 0
9 -25 1107 0
9 -1108 0
-25 -1108 0
-9 25 1108 0
-39 -1109 0
-40 -1109 0
39 40 1109 0
-28 -1110 0
-42 -1110 0
28 42 1110 0
-27 -1111 0
-44 -1111 0
27 44 1111 0
-26 -1112 0
-46 -1112 0
26 46 1112 0
-25 -1113 0
-48 -1113 0
25 48 1113 0
-41 -1114 0
-47 -1114 0
41 47 1114 0
-38 -1115 0
-41 -1115 0
38 41 1115 0
-45 -1116 0
1115 -1116 0
45 -1115 1116 0
-35 -1117 0
1115 -1117 0
35 -1115 1117 0
-43 -1118 0
1117 -1118 0
43 -1117 1118 0
-50 -1119 0
-51 -1119 0
50 51 1119 0
-52 -1120 0
-53 -1120 0
52 53 1120 0
1119 -1121 0
1120 -1121 0
-1119 -1120 1121 0
-12 -1122 0
28 -1122 0
12 -28 1122 0
12 -1123 0
-28 -1123 0
-12 28 1123 0
-55 -1124 0
-56 -1124 0
55 56 1124 0
-57 -1125 0
1117 -1125 0
57 -1117 1125 0
-54 -1126 0
-58 -1126 0
54 58 1126 0
-54 -1127 0
59 -1127 0
54 -59 1127 0
54 -1128 0
-59 -1128 0
-54 59 1128 0
-60 -1129 0
-61 -1129 0
60 61 1129 0
-7 -1130 0
23 -1130 0
7 -23 1130 0
7 -1131 0
-23 -1131 0
-7 23 1131 0
-63 -1132 0
-64 -1132 0
63 64 1132 0
-6 -1133 0
22 -1133 0
6 -22 1133 0
6 -1134 0
-22 -1134 0
-6 22 1134 0
-66 -1135 0
-67 -1135 0
66 67 1135 0
-5 -1136 0
21 -1136 0
5 -21 1136 0
5 -1137 0
-21 -1137 0
-5 21 1137 0
-69 -1138 0
-70 -1138 0
69 70 1138 0
-24 -1139 0
-72 -1139 0
24 72 1139 0
-23 -1140 0
-74 -1140 0
23 74 1140 0
-22 -1141 0
-76 -1141 0
22 76 1141 0
-21 -1142 0
-78 -1142 0
21 78 1142 0
-71 -1143 0
-77 -1143 0
71 77 1143 0
-68 -1144 0
-71 -1144 0
68 71 1144 0
-75 -1145 0
1144 -1145 0
75 -1144 1145 0
-65 -1146 0
1144 -1146 0
65 -1144 1146 0
-73 -1147 0
1146 -1147 0
73 -1146 1147 0
-80 -1148 0
-81 -1148 0
80 81 1148 0
-82 -1149 0
-83 -1149 0
82 83 1149 0
1148 -1150 0
1149 -1150 0
-1148 -1149 1150 0
-8 -1151 0
24 -1151 0
8 -24 1151 0
8 -1152 0
-24 -1152 0
-8 24 1152 0
-85 -1153 0
-86 -1153 0
85 86 1153 0
-87 -1154 0
1146 -1154 0
87 -1146 1154 0
-84 -1155 0
-88 -1155 0
84 88 1155 0
-84 -1156 0
89 -1156 0
84 -89 1156 0
84 -1157 0
-89 -1157 0
-84 89 1157 0
-90 -1158 0
-91 -1158 0
90 91 1158 0
-3 -1159 0
19 -1159 0
3 -19 1159 0
3 -1160 0
-19 -1160 0
-3 19 1160 0
-93 -1161 0
-94 -1161 0
93 94 1161 0
-2 -1162 0
18 -1162 0
2 -18 1162 0
2 -1163 0
-18 -1163 0
-2 18 1163 0
-96 -1164 0
-97 -1164 0
96 97 1164 0
-1 -1165 0
17 -1165 0
1 -17 1165 0
1 -1166 0
-17 -1166 0
-1 17 1166 0
-99 -1167 0
-100 -1167 0
99 100 1167 0
-20 -1168 0
-102 -1168 0
20 102 1168 0
-19 -1169 0
-104 -1169 0
19 104 1169 0
-18 -1170 0
-106 -1170 0
18 106 1170 0
-17 -1171 0
-108 -1171 0
17 108 1171 0
-101 -1172 0
-107 -1172 0
101 107 1172 0
-98 -1173 0
-101 -1173 0
98 101 1173 0
-105 -1174 0
1173 -1174 0
105 -1173 1174 0
-95 -1175 0
1173 -1175 0
95 -1173 1175 0
-103 -1176 0
1175 -1176 0
103 -1175 1176 0
-110 -1177 0
-111 -1177 0
110 111 1177 0
-112 -1178 0
-113 -1178 0
112 113 1178 0
1177 -1179 0
1178 -1179 0
-1177 -1178 1179 0
-4 -1180 0
20 -1180 0
4 -20 1180 0
4 -1181 0
-20 -1181 0
-4 20 1181 0
-115 -1182 0
-116 -1182 0
115 116 1182 0
-117 -1183 0
1175 -1183 0
117 -1175 1183 0
-114 -1184 0
-118 -1184 0
114 118 1184 0
-114 -1185 0
119 -1185 0
114 -119 1185 0
114 -1186 0
-119 -1186 0
-114 119 1186 0
-120 -1187 0
-121 -1187 0
120 121 1187 0
-15 -1188 0
31 -1188 0
15 -31 1188 0
15 -1189 0
-31 -1189 0
-15 31 1189 0
-123 -1190 0
-124 -1190 0
123 124 1190 0
-14 -1191 0
30 -1191 0
14 -30 1191 0
14 -1192 0
-30 -1192 0
-14 30 1192 0
-126 -1193 0
-127 -1193 0
126 127 1193 0
-13 -1194 0
29 -1194 0
13 -29 1194 0
13 -1195 0
-29 -1195 0
-13 29 1195 0
-129 -1196 0
-130 -1196 0
129 130 1196 0
-32 -1197 0
-132 -1197 0
32 132 1197 0
-31 -1198 0
-134 -1198 0
31 134 1198 0
-30 -1199 0
-136 -1199 0
30 136 1199 0
-29 -1200 0
-138 -1200 0
29 138 1200 0
-131 -1201 0
-137 -1201 0
131 137 1201 0
-128 -1202 0
-131 -1202 0
128 131 1202 0
-135 -1203 0
1202 -1203 0
135 -1202 1203 0
-125 -1204 0
1202 -1204 0
125 -1202 1204 0
-133 -1205 0
1204 -1205 0
133 -1204 1205 0
-140 -1206 0
-141 -1206 0
140 141 1206 0
-142 -1207 0
-143 -1207 0
142 143 1207 0
1206 -1208 0
1207 -1208 0
-1206 -1207 1208 0
-16 -1209 0
32 -1209 0
16 -32 1209 0
16 -1210 0
-32 -1210 0
-16 32 1210 0
-145 -1211 0
-146 -1211 0
145 146 1211 0
-147 -1212 0
1204 -1212 0
147 -1204 1212 0
-144 -1213 0
-148 -1213 0
144 148 1213 0
-149 -1214 0
-150 -1214 0
149 150 1214 0
-59 -1215 0
-152 -1215 0
59 152 1215 0
-89 -1216 0
-154 -1216 0
89 154 1216 0
-119 -1217 0
-156 -1217 0
119 156 1217 0
-122 -1218 0
-155 -1218 0
122 155 1218 0
-92 -1219 0
-122 -1219 0
92 122 1219 0
-153 -1220 0
1219 -1220 0
153 -1219 1220 0
-62 -1221 0
1219 -1221 0
62 -1219 1221 0
-151 -1222 0
1221 -1222 0
151 -1221 1222 0
-158 -1223 0
-159 -1223 0
158 159 1223 0
-160 -1224 0
-161 -1224 0
160 161 1224 0
1223 -1225 0
1224 -1225 0
-1223 -1224 1225 0
-144 -1226 0
149 -1226 0
144 -149 1226 0
144 -1227 0
-149 -1227 0
-144 149 1227 0
-163 -1228 0
-164 -1228 0
163 164 1228 0
-165 -1229 0
1221 -1229 0
165 -1221 1229 0
-162 -1230 0
-166 -1230 0
162 166 1230 0
-197 -1231 0
-198 -1231 0
197 198 1231 0
-200 -1232 0
-201 -1232 0
200 201 1232 0
-203 -1233 0
-204 -1233 0
203 204 1233 0
-32 -1234 0
-206 -1234 0
32 206 1234 0
-31 -1235 0
-208 -1235 0
31 208 1235 0
-30 -1236 0
-210 -1236 0
30 210 1236 0
-29 -1237 0
-212 -1237 0
29 212 1237 0
-214 -1238 0
-215 -1238 0
214 215 1238 0
-217 -1239 0
-218 -1239 0
217 218 1239 0
-220 -1240 0
-221 -1240 0
220 221 1240 0
-223 -1241 0
-224 -1241 0
223 224 1241 0
-28 -1242 0
-226 -1242 0
28 226 1242 0
-27 -1243 0
-228 -1243 0
27 228 1243 0
-26 -1244 0
-230 -1244 0
26 230 1244 0
-25 -1245 0
-232 -1245 0
25 232 1245 0
-234 -1246 0
-235 -1246 0
234 235 1246 0
-237 -1247 0
-238 -1247 0
237 238 1247 0
-240 -1248 0
-241 -1248 0
240 241 1248 0
-243 -1249 0
-244 -1249 0
243 244 1249 0
-24 -1250 0
-246 -1250 0
24 246 1250 0
-23 -1251 0
-248 -1251 0
23 248 1251 0
-22 -1252 0
-250 -1252 0
22 250 1252 0
-21 -1253 0
-252 -1253 0
21 252 1253 0
-254 -1254 0
-255 -1254 0
254 255 1254 0
-3 -1255 0
257 -1255 0
3 -257 1255 0
3 -1256 0
-257 -1256 0
-3 257 1256 0
-258 -1257 0
-259 -1257 0
258 259 1257 0
-261 -1258 0
-262 -1258 0
261 262 1258 0
-264 -1259 0
-265 -1259 0
264 265 1259 0
-20 -1260 0
-267 -1260 0
20 267 1260 0
-19 -1261 0
-269 -1261 0
19 269 1261 0
-18 -1262 0
-271 -1262 0
18 271 1262 0
-17 -1263 0
-273 -1263 0
17 273 1263 0
-266 -1264 0
-272 -1264 0
266 272 1264 0
-263 -1265 0
-266 -1265 0
263 266 1265 0
-270 -1266 0
1265 -1266 0
270 -1265 1266 0
-260 -1267 0
1265 -1267 0
260 -1265 1267 0
-268 -1268 0
1267 -1268 0
268 -1267 1268 0
-275 -1269 0
-276 -1269 0
275 276 1269 0
-277 -1270 0
-278 -1270 0
277 278 1270 0
1269 -1271 0
1270 -1271 0
-1269 -1270 1271 0
-280 -1272 0
-281 -1272 0
280 281 1272 0
-282 -1273 0
1267 -1273 0
282 -1267 1273 0
284 -1274 0
285 -1274 0
-284 -285 1274 0
286 -1275 0
1274 -1275 0
-286 -1274 1275 0
-171 -1276 0
-199 -1276 0
171 199 1276 0
171 -1277 0
199 -1277 0
-171 -199 1277 0
-1276 -1278 0
-1277 -1278 0
1276 1277 1278 0
-172 -1279 0
-202 -1279 0
172 202 1279 0
172 -1280 0
202 -1280 0
-172 -202 1280 0
-1279 -1281 0
-1280 -1281 0
1279 1280 1281 0
-203 -1282 0
-1195 -1282 0
203 1195 1282 0
205 -1283 0
-1282 -1283 0
-205 1282 1283 0
-173 -1284 0
-1283 -1284 0
173 1283 1284 0
-205 -1285 0
-1195 -1285 0
205 1195 1285 0
173 -1286 0
-1285 -1286 0
-173 1285 1286 0
-29 -1287 0
203 -1287 0
29 -203 1287 0
-1286 -1288 0
-1287 -1288 0
1286 1287 1288 0
-1284 -1289 0
1288 -1289 0
1284 -1288 1289 0
-174 -1290 0
-207 -1290 0
174 207 1290 0
174 -1291 0
207 -1291 0
-174 -207 1291 0
-1290 -1292 0
-1291 -1292 0
1290 1291 1292 0
-175 -1293 0
209 -1293 0
175 -209 1293 0
-1189 -1294 0
-1293 -1294 0
1189 1293 1294 0
175 -1295 0
-209 -1295 0
-175 209 1295 0
1189 -1296 0
-1295 -1296 0
-1189 1295 1296 0
-1294 -1297 0
-1296 -1297 0
1294 1296 1297 0
-176 -1298 0
-1192 -1298 0
176 1192 1298 0
176 -1299 0
1192 -1299 0
-176 -1192 1299 0
-1298 -1300 0
-1299 -1300 0
1298 1299 1300 0
-177 -1301 0
-1195 -1301 0
177 1195 1301 0
177 -1302 0
1195 -1302 0
-177 -1195 1302 0
-1301 -1303 0
-1302 -1303 0
1301 1302 1303 0
-1209 -1304 0
-1210 -1304 0
1209 1210 1304 0
178 -1305 0
-1304 -1305 0
-178 1304 1305 0
-178 -1306 0
1304 -1306 0
178 -1304 1306 0
-1305 -1307 0
-1306 -1307 0
1305 1306 1307 0
-179 -1308 0
-219 -1308 0
179 219 1308 0
179 -1309 0
219 -1309 0
-179 -219 1309 0
-1308 -1310 0
-1309 -1310 0
1308 1309 1310 0
-180 -1311 0
-222 -1311 0
180 222 1311 0
180 -1312 0
222 -1312 0
-180 -222 1312 0
-1311 -1313 0
-1312 -1313 0
1311 1312 1313 0
-181 -1314 0
-225 -1314 0
181 225 1314 0
181 -1315 0
225 -1315 0
-181 -225 1315 0
-1314 -1316 0
-1315 -1316 0
1314 1315 1316 0
-182 -1317 0
-227 -1317 0
182 227 1317 0
182 -1318 0
227 -1318 0
-182 -227 1318 0
-1317 -1319 0
-1318 -1319 0
1317 1318 1319 0
-183 -1320 0
-1102 -1320 0
183 1102 1320 0
183 -1321 0
1102 -1321 0
-183 -1102 1321 0
-1320 -1322 0
-1321 -1322 0
1320 1321 1322 0
-184 -1323 0
-1105 -1323 0
184 1105 1323 0
184 -1324 0
1105 -1324 0
-184 -1105 1324 0
-1323 -1325 0
-1324 -1325 0
1323 1324 1325 0
-185 -1326 0
-1108 -1326 0
185 1108 1326 0
185 -1327 0
1108 -1327 0
-185 -1108 1327 0
-1326 -1328 0
-1327 -1328 0
1326 1327 1328 0
-186 -1329 0
-236 -1329 0
186 236 1329 0
186 -1330 0
236 -1330 0
-186 -236 1330 0
-1329 -1331 0
-1330 -1331 0
1329 1330 1331 0
-187 -1332 0
-239 -1332 0
187 239 1332 0
187 -1333 0
239 -1333 0
-187 -239 1333 0
-1332 -1334 0
-1333 -1334 0
1332 1333 1334 0
-240 -1335 0
-1134 -1335 0
240 1134 1335 0
242 -1336 0
-1335 -1336 0
-242 1335 1336 0
-188 -1337 0
-1336 -1337 0
188 1336 1337 0
-242 -1338 0
-1134 -1338 0
242 1134 1338 0
188 -1339 0
-1338 -1339 0
-188 1338 1339 0
-22 -1340 0
240 -1340 0
22 -240 1340 0
-1339 -1341 0
-1340 -1341 0
1339 1340 1341 0
-1337 -1342 0
1341 -1342 0
1337 -1341 1342 0
-189 -1343 0
-245 -1343 0
189 245 1343 0
189 -1344 0
245 -1344 0
-189 -245 1344 0
-1343 -1345 0
-1344 -1345 0
1343 1344 1345 0
-190 -1346 0
-247 -1346 0
190 247 1346 0
190 -1347 0
247 -1347 0
-190 -247 1347 0
-1346 -1348 0
-1347 -1348 0
1346 1347 1348 0
-191 -1349 0
-1131 -1349 0
191 1131 1349 0
191 -1350 0
1131 -1350 0
-191 -1131 1350 0
-1349 -1351 0
-1350 -1351 0
1349 1350 1351 0
-192 -1352 0
-1134 -1352 0
192 1134 1352 0
192 -1353 0
1134 -1353 0
-192 -1134 1353 0
-1352 -1354 0
-1353 -1354 0
1352 1353 1354 0
-193 -1355 0
-1137 -1355 0
193 1137 1355 0
193 -1356 0
1137 -1356 0
-193 -1137 1356 0
-1355 -1357 0
-1356 -1357 0
1355 1356 1357 0
-194 -1358 0
-256 -1358 0
194 256 1358 0
194 -1359 0
256 -1359 0
-194 -256 1359 0
-1358 -1360 0
-1359 -1360 0
1358 1359 1360 0
-195 -1361 0
-279 -1361 0
195 279 1361 0
195 -1362 0
279 -1362 0
-195 -279 1362 0
-1361 -1363 0
-1362 -1363 0
1361 1362 1363 0
-196 -1364 0
-283 -1364 0
196 283 1364 0
196 -1365 0
283 -1365 0
-196 -283 1365 0
-1364 -1366 0
-1365 -1366 0
1364 1365 1366 0
